NAME          MIP_VARIED_EX09
ROWS
 N   OBJ
 G   C1
 G   C2
COLUMNS
    X1       OBJ       5
    X1       C1       1
    X1       C2       3
    X2       OBJ       1
    X2       C1       2
    X2       C2       2
    X3       OBJ       1
    X3       C1       3
    X3       C2       2
RHS
    RHS1     C1        8
    RHS1     C2        4
BOUNDS
 BV BND1     X1
 BV BND1     X2
 BV BND1     X3
ENDATA